id: 1766
name: sgpf5y6
group: mittelmann/misc
method: 2

Gurobi 7.0.2 (linux64, Matlab) logging started Mon Mar 26 10:30:40 2018


Gurobi 7.0.2 (linux64) logging started Mon Mar 26 10:30:40 2018

Optimize a model with 246077 rows, 308634 columns and 828070 nonzeros
Coefficient statistics:
  Matrix range     [1e+00, 1e+00]
  Objective range  [2e-09, 2e-02]
  Bounds range     [8e+04, 4e+05]
  RHS range        [4e+02, 5e+02]
Presolve removed 226578 rows and 269614 columns
Presolve time: 0.40s
Presolved: 19499 rows, 39020 columns, 109247 nonzeros

Ordering time: 0.01s

Barrier statistics:
 Dense cols : 62
 AA' NZ     : 1.948e+05
 Factor NZ  : 4.238e+05 (roughly 27 MBytes of memory)
 Factor Ops : 1.112e+07 (less than 1 second per iteration)
 Threads    : 1

                  Objective                Residual
Iter       Primal          Dual         Primal    Dual     Compl     Time
   0  -3.61702330e+03 -5.04430085e+03  8.47e+04 2.30e+01  4.89e+05     0s
   1  -4.53828952e+03 -5.03114596e+03  3.01e+04 1.56e+01  2.11e+05     0s
   2  -4.97007176e+03 -5.04065074e+03  1.03e+04 1.76e+01  1.70e+05     0s
   3  -4.94208122e+03 -5.07838039e+03  9.11e+03 1.24e+01  1.22e+05     1s
   4  -5.07004140e+03 -5.25589380e+03  3.50e+03 7.65e+00  7.90e+04     1s
   5  -5.09592689e+03 -5.26359740e+03  3.22e+03 6.70e+00  6.91e+04     1s
   6  -5.30103575e+03 -5.46840784e+03  2.41e+03 3.93e+00  3.90e+04     1s
   7  -5.35423923e+03 -5.46946357e+03  2.19e+03 3.85e+00  3.81e+04     1s
   8  -5.36902507e+03 -5.62565171e+03  2.10e+03 1.74e+00  1.82e+04     1s
   9  -5.49016004e+03 -5.62477221e+03  1.32e+03 1.71e+00  1.73e+04     1s
  10  -5.52418085e+03 -5.62695351e+03  1.18e+03 1.56e+00  1.58e+04     1s
  11  -5.57368473e+03 -5.71653614e+03  1.10e+03 1.31e+00  1.35e+04     1s
  12  -5.58847995e+03 -5.80414956e+03  1.08e+03 1.18e+00  1.25e+04     1s
  13  -5.66444579e+03 -5.80335931e+03  8.26e+02 1.09e+00  1.14e+04     1s
  14  -5.69198935e+03 -6.05553823e+03  7.79e+02 7.21e-01  8.44e+03     1s
  15  -5.73046319e+03 -6.05113926e+03  6.69e+02 7.06e-01  8.20e+03     1s
  16  -5.73718312e+03 -6.01021540e+03  6.49e+02 5.32e-01  6.27e+03     1s
  17  -5.82794281e+03 -5.98520427e+03  3.57e+02 3.52e-01  4.14e+03     1s
  18  -5.84637860e+03 -5.98407071e+03  3.24e+02 3.42e-01  4.00e+03     1s
  19  -5.86499249e+03 -5.98292221e+03  3.06e+02 3.30e-01  3.85e+03     1s
  20  -5.86295618e+03 -5.98290578e+03  3.04e+02 3.18e-01  3.72e+03     1s
  21  -5.86597100e+03 -5.98758675e+03  3.03e+02 2.99e-01  3.53e+03     1s
  22  -5.93044205e+03 -5.99168585e+03  2.19e+02 2.61e-01  3.04e+03     1s
  23  -5.93314251e+03 -5.99707665e+03  2.19e+02 2.59e-01  3.03e+03     1s
  24  -5.94178620e+03 -6.01601728e+03  2.10e+02 2.12e-01  2.56e+03     1s
  25  -5.95822409e+03 -6.01645478e+03  2.00e+02 2.09e-01  2.40e+03     1s
  26  -5.95521508e+03 -6.01907979e+03  1.99e+02 2.03e-01  2.35e+03     1s
  27  -3.61702330e+03 -5.04430085e+03  8.47e+04 2.30e+01  9.43e+06     1s
  28  -4.92289820e+03 -5.13494368e+03  4.30e+01 1.67e+02  3.38e+06     1s
  29  -5.00154446e+03 -5.11658105e+03  3.26e-03 2.16e+01  4.39e+05     1s
  30  -5.13666052e+03 -5.14419192e+03  1.49e-03 1.61e+01  3.29e+05     1s
  31  -5.25051630e+03 -5.23456277e+03  5.79e-04 9.66e+00  2.01e+05     1s
  32  -5.22707321e+03 -5.45091084e+03  5.20e-04 5.44e+00  1.09e+05     1s
  33  -5.31681331e+03 -5.47479855e+03  4.39e-04 3.52e+00  7.18e+04     1s
  34  -5.41926895e+03 -5.54610996e+03  3.04e-04 2.09e+00  4.40e+04     1s
  35  -5.43522127e+03 -5.54724643e+03  2.98e-04 2.10e+00  4.33e+04     1s
  36  -5.55051113e+03 -5.56789054e+03  1.95e-04 1.74e+00  3.56e+04     1s
  37  -5.56686755e+03 -5.66328151e+03  1.90e-04 1.41e+00  2.91e+04     1s
  38  -5.58936694e+03 -5.76944730e+03  1.88e-04 1.22e+00  2.54e+04     1s
  39  -5.60332662e+03 -5.78176641e+03  1.85e-04 1.14e+00  2.37e+04     1s
  40  -5.61500942e+03 -6.00440591e+03  1.83e-04 7.59e-01  1.70e+04     1s
  41  -5.65125686e+03 -6.00077151e+03  1.62e-04 7.51e-01  1.64e+04     1s
  42  -5.72179847e+03 -5.98087446e+03  1.08e-04 4.00e-01  9.13e+03     1s
  43  -5.80100278e+03 -5.97802987e+03  7.22e-05 3.65e-01  8.16e+03     1s
  44  -5.80646024e+03 -5.98925772e+03  7.11e-05 3.29e-01  7.39e+03     1s
  45  -5.84247093e+03 -5.99018810e+03  6.08e-05 2.88e-01  6.43e+03     1s
  46  -5.85175650e+03 -6.02438956e+03  5.93e-05 2.17e-01  5.06e+03     1s
  47  -5.89538514e+03 -6.08988365e+03  5.07e-05 1.61e-01  4.01e+03     1s
  48  -5.99512662e+03 -6.10853153e+03  3.14e-05 1.19e-01  2.92e+03     1s
  49  -6.03065925e+03 -6.12620463e+03  2.71e-05 1.01e-01  2.49e+03     1s
  50  -6.03933960e+03 -6.13883884e+03  2.62e-05 9.13e-02  2.28e+03     1s
  51  -6.06262822e+03 -6.14203452e+03  2.39e-05 8.72e-02  2.15e+03     1s
  52  -6.07054840e+03 -6.14857241e+03  2.32e-05 8.01e-02  2.00e+03     1s
  53  -6.07166238e+03 -6.16045079e+03  2.31e-05 7.30e-02  1.88e+03     1s
  54  -6.10825348e+03 -6.17814834e+03  2.01e-05 6.24e-02  1.62e+03     1s
  55  -6.14629547e+03 -6.19859869e+03  1.73e-05 5.40e-02  1.42e+03     1s
  56  -6.15304384e+03 -6.22618974e+03  1.69e-05 4.60e-02  1.31e+03     1s
  57  -6.16799765e+03 -6.22871077e+03  1.60e-05 4.48e-02  1.26e+03     1s
  58  -6.17214679e+03 -6.25861475e+03  1.58e-05 3.74e-02  1.17e+03     1s
  59  -6.20691599e+03 -6.27757706e+03  1.37e-05 3.43e-02  1.07e+03     1s
  60  -6.24955759e+03 -6.28766166e+03  1.11e-05 3.08e-02  9.16e+02     1s
  61  -6.25683661e+03 -6.32011905e+03  1.07e-05 2.44e-02  8.32e+02     1s
  62  -6.28278231e+03 -6.32679221e+03  9.23e-06 2.27e-02  7.40e+02     1s
  63  -6.29079874e+03 -6.34947431e+03  8.85e-06 1.88e-02  6.87e+02     1s
  64  -6.29958209e+03 -6.36955163e+03  8.41e-06 1.55e-02  6.38e+02     1s
  65  -6.31281937e+03 -6.37122599e+03  7.82e-06 1.52e-02  6.02e+02     1s
  66  -6.31862726e+03 -6.37559558e+03  7.59e-06 1.43e-02  5.79e+02     1s
  67  -6.32972382e+03 -6.37958855e+03  7.15e-06 1.36e-02  5.47e+02     1s
  68  -6.34076524e+03 -6.39702589e+03  6.68e-06 1.13e-02  5.04e+02     2s
  69  -6.36874591e+03 -6.40784448e+03  5.41e-06 9.64e-03  4.12e+02     2s
  70  -6.37706661e+03 -6.41500216e+03  5.04e-06 8.66e-03  3.81e+02     2s
  71  -6.38328220e+03 -6.41768134e+03  4.76e-06 8.30e-03  3.60e+02     2s
  72  -6.38660889e+03 -6.50276680e+03  4.60e-06 4.13e-04  3.68e+02     2s
  73  -6.47583036e+03 -6.48603794e+03  3.96e-07 1.14e-13  3.15e+01     2s
  74  -6.47815807e+03 -6.48493403e+03  2.17e-06 3.41e-13  2.07e+01     2s
  75  -6.48043224e+03 -6.48488416e+03  1.42e-06 6.82e-12  1.36e+01     2s
  76  -6.48143727e+03 -6.48476412e+03  1.06e-06 9.09e-13  1.02e+01     2s
  77  -6.48295644e+03 -6.48464891e+03  5.04e-07 1.36e-12  5.17e+00     2s
  78  -6.48373895e+03 -6.48455517e+03  2.31e-07 1.82e-12  2.49e+00     2s
  79  -6.48418981e+03 -6.48450874e+03  8.15e-08 1.71e-13  9.74e-01     2s
  80  -6.48434568e+03 -6.48447713e+03  1.49e-07 1.82e-12  4.01e-01     2s
  81  -6.48445833e+03 -6.48446944e+03  1.26e-08 3.64e-12  3.40e-02     2s
  82  -6.48446554e+03 -6.48446561e+03  1.46e-08 2.27e-13  2.28e-04     2s
  83  -6.48446559e+03 -6.48446560e+03  4.20e-06 4.55e-12  2.10e-06     2s
  84  -6.48446559e+03 -6.48446560e+03  2.24e-05 3.64e-12  2.10e-06     2s

Barrier solved model in 84 iterations and 1.81 seconds
Optimal objective -6.48446559e+03

Crossover log...

   14054 DPushes remaining with DInf 0.0000000e+00                 2s
       0 DPushes remaining with DInf 9.1496255e-13                 2s

   22894 PPushes remaining with PInf 1.0466479e-04                 2s
       0 PPushes remaining with PInf 0.0000000e+00                 2s

  Push phase complete: Pinf 0.0000000e+00, Dinf 1.2464974e+01      2s

Iteration    Objective       Primal Inf.    Dual Inf.      Time
   36951   -6.4844656e+03   0.000000e+00   1.246497e+01      2s
   38932   -6.4844656e+03   0.000000e+00   0.000000e+00      2s

Solved in 38932 iterations and 2.10 seconds
Optimal objective -6.484465595e+03
status: OPTIMAL
